logs/miss/qp/miss-05-15-1.lp
\ LP format - for model browsing. Use MPS format to capture full model detail.
Minimize
  x0 + x1 + x2 + x3 + x4 + x5 + x6 + x7 + x8 + x9 + x10 + x11 + x12 + x13
   + x14 + x15 + x16 + x17 + x18 + x19 + x20 + x21 + x22 + x23 + x24 + x25
   + x26 + x27 + x28 + x29 + x30 + x31 + x32 + x33 + x34 + x35 + x36 + x37
   + x38 + x39 + x40 + x41 + x42 + x43 + x44 + x45 + x46 + x47 + x48
Subject To
 R0: x0 = 1
 qc0: [ x0 * x3 + x1 * x4 + x2 * x5 + x3 * x6 + x4 * x7 + x5 * x8 + x6 * x9
   + x7 * x10 + x8 * x11 + x9 * x12 + x10 * x13 + x11 * x14 + x12 * x15
   + x13 * x16 + x14 * x17 + x15 * x18 + x16 * x19 + x17 * x20 + x18 * x21
   + x19 * x22 + x20 * x23 + x21 * x24 + x22 * x25 + x23 * x26 + x24 * x27
   + x25 * x28 + x26 * x29 + x27 * x30 + x28 * x31 + x29 * x32 + x30 * x33
   + x31 * x34 + x32 * x35 + x33 * x36 + x34 * x37 + x35 * x38 + x36 * x39
   + x37 * x40 + x38 * x41 + x39 * x42 + x40 * x43 + x41 * x44 + x42 * x45
   + x43 * x46 + x44 * x47 + x45 * x48 ] >= 1
 qc1: [ x0 * x4 + x1 * x5 + x2 * x6 + x3 * x7 + x4 * x8 + x5 * x9
   + x6 * x10 + x7 * x11 + x8 * x12 + x9 * x13 + x10 * x14 + x11 * x15
   + x12 * x16 + x13 * x17 + x14 * x18 + x15 * x19 + x16 * x20 + x17 * x21
   + x18 * x22 + x19 * x23 + x20 * x24 + x21 * x25 + x22 * x26 + x23 * x27
   + x24 * x28 + x25 * x29 + x26 * x30 + x27 * x31 + x28 * x32 + x29 * x33
   + x30 * x34 + x31 * x35 + x32 * x36 + x33 * x37 + x34 * x38 + x35 * x39
   + x36 * x40 + x37 * x41 + x38 * x42 + x39 * x43 + x40 * x44 + x41 * x45
   + x42 * x46 + x43 * x47 + x44 * x48 ] >= 1
 qc2: [ x0 * x7 + x1 * x8 + x2 * x9 + x3 * x10 + x4 * x11 + x5 * x12
   + x6 * x13 + x7 * x14 + x8 * x15 + x9 * x16 + x10 * x17 + x11 * x18
   + x12 * x19 + x13 * x20 + x14 * x21 + x15 * x22 + x16 * x23 + x17 * x24
   + x18 * x25 + x19 * x26 + x20 * x27 + x21 * x28 + x22 * x29 + x23 * x30
   + x24 * x31 + x25 * x32 + x26 * x33 + x27 * x34 + x28 * x35 + x29 * x36
   + x30 * x37 + x31 * x38 + x32 * x39 + x33 * x40 + x34 * x41 + x35 * x42
   + x36 * x43 + x37 * x44 + x38 * x45 + x39 * x46 + x40 * x47 + x41 * x48
   ] >= 1
 qc3: [ x0 * x15 + x1 * x16 + x2 * x17 + x3 * x18 + x4 * x19 + x5 * x20
   + x6 * x21 + x7 * x22 + x8 * x23 + x9 * x24 + x10 * x25 + x11 * x26
   + x12 * x27 + x13 * x28 + x14 * x29 + x15 * x30 + x16 * x31 + x17 * x32
   + x18 * x33 + x19 * x34 + x20 * x35 + x21 * x36 + x22 * x37 + x23 * x38
   + x24 * x39 + x25 * x40 + x26 * x41 + x27 * x42 + x28 * x43 + x29 * x44
   + x30 * x45 + x31 * x46 + x32 * x47 + x33 * x48 ] >= 1
 qc4: [ x0 * x19 + x1 * x20 + x2 * x21 + x3 * x22 + x4 * x23 + x5 * x24
   + x6 * x25 + x7 * x26 + x8 * x27 + x9 * x28 + x10 * x29 + x11 * x30
   + x12 * x31 + x13 * x32 + x14 * x33 + x15 * x34 + x16 * x35 + x17 * x36
   + x18 * x37 + x19 * x38 + x20 * x39 + x21 * x40 + x22 * x41 + x23 * x42
   + x24 * x43 + x25 * x44 + x26 * x45 + x27 * x46 + x28 * x47 + x29 * x48
   ] >= 1
Bounds
Binaries
 x0 x1 x2 x3 x4 x5 x6 x7 x8 x9 x10 x11 x12 x13 x14 x15 x16 x17 x18 x19 x20
 x21 x22 x23 x24 x25 x26 x27 x28 x29 x30 x31 x32 x33 x34 x35 x36 x37 x38
 x39 x40 x41 x42 x43 x44 x45 x46 x47 x48
End
