logs/miss/qp/miss-05-15-1.log

Gurobi 8.1.1 (win64) logging started 11/26/19 08:55:51

Changed value of parameter LogFile to logs/miss/qp/miss-05-15-1.log
   Prev: gurobi.log  Default: 
Changed value of parameter LogToConsole to 0
   Prev: 1  Min: 0  Max: 1  Default: 1
Changed value of parameter TimeLimit to 3600.0
   Prev: 1e+100  Min: 0.0  Max: 1e+100  Default: 1e+100
Optimize a model with 1 rows, 49 columns and 1 nonzeros
Model has 5 quadratic constraints
Variable types: 0 continuous, 49 integer (49 binary)
Coefficient statistics:
  Matrix range     [1e+00, 1e+00]
  QMatrix range    [1e+00, 1e+00]
  Objective range  [1e+00, 1e+00]
  Bounds range     [1e+00, 1e+00]
  RHS range        [1e+00, 1e+00]
  QRHS range       [1e+00, 1e+00]
Found heuristic solution: objective 49.0000000
Presolve removed 1 rows and 1 columns
Presolve time: 0.00s
Presolved: 0 rows, 48 columns, 0 nonzeros
Variable types: 0 continuous, 48 integer (48 binary)

Root relaxation: objective 1.000000e+00, 0 iterations, 0.00 seconds

    Nodes    |    Current Node    |     Objective Bounds      |     Work
 Expl Unexpl |  Obj  Depth IntInf | Incumbent    BestBd   Gap | It/Node Time

     0     0    2.00000    0    2   49.00000    2.00000  95.9%     -    0s
H    0     0                       7.0000000    2.00000  71.4%     -    0s
     0     0    2.00000    0    2    7.00000    2.00000  71.4%     -    0s
     0     0    2.00000    0    2    7.00000    2.00000  71.4%     -    0s
H    0     0                       6.0000000    2.00000  66.7%     -    0s
     0     2    2.00000    0    2    6.00000    2.00000  66.7%     -    0s
H   65    30                       5.0000000    2.00000  60.0%   1.4    0s
H  110    26                       4.0000000    2.50000  37.5%   1.4    0s

Explored 1243 nodes (2654 simplex iterations) in 2.73 seconds
Thread count was 4 (of 4 available processors)

Solution count 5: 4 5 6 ... 49

Optimal solution found (tolerance 1.00e-04)
Best objective 4.000000000000e+00, best bound 4.000000000000e+00, gap 0.0000%
Warning: Q constraint 0 doesn't have a name
